NAME: instance_1674
TYPE: TSP
DIMENSION: 20
EDGE_WEIGHT_TYPE: EUC_2D
NODE_COORD_SECTION
0 0.90 85.02
1 41.73 76.05
2 70.81 82.51
3 9.08 3.59
4 23.73 34.15
5 47.64 22.64
6 82.23 18.49
7 0.33 7.74
8 28.84 57.38
9 24.71 76.60
10 64.48 28.58
11 65.35 32.28
12 18.17 16.62
13 72.46 66.23
14 56.32 31.60
15 71.60 4.62
16 8.32 24.00
17 46.65 28.34
18 1.13 22.09
19 62.47 66.26
EOF
